sat
(
  (define-fun C4_VM3 () Int
    0)
  (define-fun C1_VM8 () Int
    1)
  (define-fun C3_VM5 () Int
    0)
  (define-fun C4_VM5 () Int
    0)
  (define-fun C5_VM4 () Int
    0)
  (define-fun C4_VM6 () Int
    0)
  (define-fun C1_VM3 () Int
    1)
  (define-fun C4_VM1 () Int
    0)
  (define-fun VM6Type () Int
    225)
  (define-fun VM7Type () Int
    182)
  (define-fun PriceProv2 () Int
    210)
  (define-fun PriceProv6 () Int
    126)
  (define-fun StorageProv5 () Int
    2000)
  (define-fun VM3Type () Int
    225)
  (define-fun MemProv6 () Int
    3750)
  (define-fun C3_VM1 () Int
    0)
  (define-fun PriceProv7 () Int
    210)
  (define-fun VM2Type () Int
    182)
  (define-fun C1_VM1 () Int
    1)
  (define-fun C1_VM6 () Int
    0)
  (define-fun VM5Type () Int
    225)
  (define-fun C2_VM7 () Int
    0)
  (define-fun C3_VM3 () Int
    0)
  (define-fun VM1Type () Int
    225)
  (define-fun VM8Type () Int
    225)
  (define-fun StorageProv3 () Int
    2000)
  (define-fun StorageProv4 () Int
    2000)
  (define-fun PriceProv3 () Int
    126)
  (define-fun PriceProv1 () Int
    126)
  (define-fun ProcProv5 () Int
    2)
  (define-fun MemProv8 () Int
    3750)
  (define-fun ProcProv8 () Int
    2)
  (define-fun C4_VM2 () Int
    0)
  (define-fun C2_VM8 () Int
    0)
  (define-fun C4_VM4 () Int
    0)
  (define-fun C1_VM2 () Int
    0)
  (define-fun PriceProv5 () Int
    126)
  (define-fun StorageProv1 () Int
    2000)
  (define-fun C4_VM8 () Int
    0)
  (define-fun C5_VM1 () Int
    0)
  (define-fun StorageProv6 () Int
    2000)
  (define-fun PriceProv8 () Int
    126)
  (define-fun ProcProv3 () Int
    2)
  (define-fun VM4Type () Int
    182)
  (define-fun StorageProv7 () Int
    2000)
  (define-fun C2_VM3 () Int
    0)
  (define-fun C5_VM2 () Int
    1)
  (define-fun C5_VM3 () Int
    0)
  (define-fun MemProv2 () Int
    7500)
  (define-fun MemProv5 () Int
    3750)
  (define-fun ProcProv4 () Int
    4)
  (define-fun C4_VM7 () Int
    0)
  (define-fun C3_VM4 () Int
    1)
  (define-fun MemProv1 () Int
    3750)
  (define-fun C2_VM4 () Int
    0)
  (define-fun C3_VM8 () Int
    0)
  (define-fun MemProv4 () Int
    7500)
  (define-fun StorageProv8 () Int
    2000)
  (define-fun C1_VM5 () Int
    0)
  (define-fun C2_VM2 () Int
    0)
  (define-fun C1_VM7 () Int
    0)
  (define-fun MemProv3 () Int
    3750)
  (define-fun C3_VM6 () Int
    0)
  (define-fun ProcProv7 () Int
    4)
  (define-fun C2_VM1 () Int
    0)
  (define-fun C3_VM2 () Int
    0)
  (define-fun C5_VM6 () Int
    0)
  (define-fun ProcProv1 () Int
    2)
  (define-fun C5_VM5 () Int
    0)
  (define-fun ProcProv2 () Int
    4)
  (define-fun ProcProv6 () Int
    2)
  (define-fun C5_VM8 () Int
    0)
  (define-fun PriceProv4 () Int
    210)
  (define-fun C1_VM4 () Int
    0)
  (define-fun StorageProv2 () Int
    2000)
  (define-fun C5_VM7 () Int
    1)
  (define-fun C2_VM5 () Int
    1)
  (define-fun C3_VM7 () Int
    0)
  (define-fun C2_VM6 () Int
    1)
  (define-fun MemProv7 () Int
    7500)
)
(objectives
 ((+ 0
   PriceProv1
   PriceProv2
   PriceProv3
   PriceProv4
   PriceProv5
   PriceProv6
   PriceProv7
   PriceProv8) 1260)
)
(:added-eqs                   14591668
 :arith-eq-adapter            39079
 :arith-bound-propagations-lp 44323556
 :arith-conflicts             18177
 :arith-diseq                 23333769
 :arith-fixed-eqs             38068
 :arith-lower                 33055579
 :arith-make-feasible         519520
 :arith-max-columns           375
 :arith-max-rows              26
 :arith-upper                 14038249
 :binary-propagations         31838593
 :bv-bit2core                 483754
 :bv-dynamic-diseqs           18807908
 :bv->core-eq                 540
 :conflicts                   136417
 :decisions                   349175
 :del-clause                  19012952
 :final-checks                177
 :max-memory                  82.72
 :memory                      75.82
 :minimized-lits              15359672
 :mk-bool-var                 212451
 :mk-clause                   19013046
 :mk-clause-binary            8345
 :num-allocs                  47373932546.00
 :num-checks                  136
 :pb-conflicts                6754
 :pb-predicates               7
 :pb-propagations             163438
 :pb-resolves                 6397
 :propagations                96119269
 :restarts                    680
 :rlimit-count                613024374
 :time                        41.59
 :total-time                  41.45)
